
Gurobi 10.0.2 (linux64) logging started Mon 21 Aug 2023 07:33:33 PM -03

Set parameter LogFile to value "/home/ciro/Documents/ftsp-optimizer/Optimization/Data/Logs/burma14_3_1001_1003_2.log"
Gurobi Optimizer version 10.0.2 build v10.0.2rc0 (linux64)

CPU model: Intel(R) Core(TM) i7-7500U CPU @ 2.70GHz, instruction set [SSE2]
Thread count: 2 physical cores, 2 logical processors, using up to 2 threads

Optimize a model with 200 rows, 224 columns and 1079 nonzeros
Model fingerprint: 0xf8d615d0
Variable types: 14 continuous, 210 integer (210 binary)
Coefficient statistics:
  Matrix range     [1e+00, 2e+01]
  Objective range  [2e-01, 1e+01]
  Bounds range     [1e+00, 1e+01]
  RHS range        [1e+00, 1e+01]
Found heuristic solution: objective 34.3630348
Presolve removed 41 rows and 57 columns
Presolve time: 0.02s
Presolved: 159 rows, 167 columns, 1654 nonzeros
Variable types: 13 continuous, 154 integer (154 binary)

Root relaxation: objective 3.837973e+00, 16 iterations, 0.00 seconds (0.00 work units)

    Nodes    |    Current Node    |     Objective Bounds      |     Work
 Expl Unexpl |  Obj  Depth IntInf | Incumbent    BestBd   Gap | It/Node Time

     0     0    3.83797    0    4   34.36303    3.83797  88.8%     -    0s
H    0     0                      13.3205799    3.83797  71.2%     -    0s
H    0     0                       6.1218430    3.83797  37.3%     -    0s
     0     0    4.21483    0    4    6.12184    4.21483  31.2%     -    0s
H    0     0                       6.1163075    4.21483  31.1%     -    0s
     0     0    4.21483    0    4    6.11631    4.21483  31.1%     -    0s
     0     0     cutoff    0         6.11631    6.11631  0.00%     -    0s

Cutting planes:
  Learned: 1
  Implied bound: 3
  RLT: 3

Explored 1 nodes (41 simplex iterations) in 0.04 seconds (0.01 work units)
Thread count was 2 (of 2 available processors)

Solution count 4: 6.11631 6.12184 13.3206 34.363 

Optimal solution found (tolerance 1.00e-04)
Best objective 6.116307495203e+00, best bound 6.116307495203e+00, gap 0.0000%

Gurobi 10.0.2 (linux64) logging started Mon 21 Aug 2023 08:15:37 PM -03

Set parameter LogFile to value "/home/ciro/Documents/ftsp-optimizer/Optimization/Data/Logs/burma14_3_1001_1003_2.log"
Gurobi Optimizer version 10.0.2 build v10.0.2rc0 (linux64)

CPU model: Intel(R) Core(TM) i7-7500U CPU @ 2.70GHz, instruction set [SSE2]
Thread count: 2 physical cores, 2 logical processors, using up to 2 threads

Optimize a model with 187 rows, 224 columns and 1040 nonzeros
Model fingerprint: 0x3bf36d96
Variable types: 14 continuous, 210 integer (210 binary)
Coefficient statistics:
  Matrix range     [1e+00, 2e+01]
  Objective range  [2e-01, 1e+01]
  Bounds range     [1e+00, 1e+01]
  RHS range        [1e+00, 1e+01]
Found heuristic solution: objective 34.3630348
Presolve removed 41 rows and 57 columns
Presolve time: 0.01s
Presolved: 146 rows, 167 columns, 1641 nonzeros
Variable types: 13 continuous, 154 integer (154 binary)

Root relaxation: objective 3.837973e+00, 16 iterations, 0.00 seconds (0.00 work units)

    Nodes    |    Current Node    |     Objective Bounds      |     Work
 Expl Unexpl |  Obj  Depth IntInf | Incumbent    BestBd   Gap | It/Node Time

     0     0    3.83797    0    4   34.36303    3.83797  88.8%     -    0s
H    0     0                      16.4957963    3.83797  76.7%     -    0s
H    0     0                       6.1218430    3.83797  37.3%     -    0s
     0     0    4.21483    0    4    6.12184    4.21483  31.2%     -    0s
     0     0    4.21483    0    4    6.12184    4.21483  31.2%     -    0s
H    0     0                       6.1163075    4.21483  31.1%     -    0s
     0     0    4.99483    0    6    6.11631    4.99483  18.3%     -    0s

Cutting planes:
  Learned: 1
  Implied bound: 2
  RLT: 1

Explored 1 nodes (41 simplex iterations) in 0.04 seconds (0.01 work units)
Thread count was 2 (of 2 available processors)

Solution count 4: 6.11631 6.12184 16.4958 34.363 

Optimal solution found (tolerance 1.00e-04)
Best objective 6.116307495203e+00, best bound 6.116307495203e+00, gap 0.0000%

Gurobi 10.0.2 (linux64) logging started Mon 21 Aug 2023 08:19:05 PM -03

Set parameter LogFile to value "/home/ciro/Documents/ftsp-optimizer/Optimization/Data/Logs/burma14_3_1001_1003_2.log"
Gurobi Optimizer version 10.0.2 build v10.0.2rc0 (linux64)

CPU model: Intel(R) Core(TM) i7-7500U CPU @ 2.70GHz, instruction set [SSE2]
Thread count: 2 physical cores, 2 logical processors, using up to 2 threads

Optimize a model with 31 rows, 224 columns and 572 nonzeros
Model fingerprint: 0x57c3396d
Variable types: 14 continuous, 210 integer (210 binary)
Coefficient statistics:
  Matrix range     [1e+00, 1e+00]
  Objective range  [2e-01, 1e+01]
  Bounds range     [1e+00, 1e+01]
  RHS range        [1e+00, 2e+00]
Found heuristic solution: objective 34.3630348
Presolve removed 9 rows and 70 columns
Presolve time: 0.00s
Presolved: 22 rows, 154 columns, 444 nonzeros
Variable types: 0 continuous, 154 integer (154 binary)

Root relaxation: objective 3.779995e+00, 13 iterations, 0.00 seconds (0.00 work units)

    Nodes    |    Current Node    |     Objective Bounds      |     Work
 Expl Unexpl |  Obj  Depth IntInf | Incumbent    BestBd   Gap | It/Node Time

*    0     0               0       3.7799950    3.77999  0.00%     -    0s

Explored 1 nodes (13 simplex iterations) in 0.01 seconds (0.00 work units)
Thread count was 2 (of 2 available processors)

Solution count 2: 3.77999 34.363 

Optimal solution found (tolerance 1.00e-04)
Best objective 3.779994964600e+00, best bound 3.779994964600e+00, gap 0.0000%

Gurobi 10.0.2 (linux64) logging started Mon 21 Aug 2023 08:22:01 PM -03

Set parameter LogFile to value "/home/ciro/Documents/ftsp-optimizer/Optimization/Data/Logs/burma14_3_1001_1003_2.log"
Gurobi Optimizer version 10.0.2 build v10.0.2rc0 (linux64)

CPU model: Intel(R) Core(TM) i7-7500U CPU @ 2.70GHz, instruction set [SSE2]
Thread count: 2 physical cores, 2 logical processors, using up to 2 threads

Optimize a model with 187 rows, 224 columns and 1040 nonzeros
Model fingerprint: 0x3bf36d96
Variable types: 14 continuous, 210 integer (210 binary)
Coefficient statistics:
  Matrix range     [1e+00, 2e+01]
  Objective range  [2e-01, 1e+01]
  Bounds range     [1e+00, 1e+01]
  RHS range        [1e+00, 1e+01]
Found heuristic solution: objective 34.3630348
Presolve removed 41 rows and 57 columns
Presolve time: 0.02s
Presolved: 146 rows, 167 columns, 1641 nonzeros
Variable types: 13 continuous, 154 integer (154 binary)

Root relaxation: objective 3.837973e+00, 16 iterations, 0.00 seconds (0.00 work units)

    Nodes    |    Current Node    |     Objective Bounds      |     Work
 Expl Unexpl |  Obj  Depth IntInf | Incumbent    BestBd   Gap | It/Node Time

     0     0    3.83797    0    4   34.36303    3.83797  88.8%     -    0s
H    0     0                      16.4957963    3.83797  76.7%     -    0s
H    0     0                       6.1218430    3.83797  37.3%     -    0s
     0     0    4.21483    0    4    6.12184    4.21483  31.2%     -    0s
     0     0    4.21483    0    4    6.12184    4.21483  31.2%     -    0s
H    0     0                       6.1163075    4.21483  31.1%     -    0s
     0     0    4.99483    0    6    6.11631    4.99483  18.3%     -    0s

Cutting planes:
  Learned: 1
  Implied bound: 2
  RLT: 1

Explored 1 nodes (41 simplex iterations) in 0.08 seconds (0.01 work units)
Thread count was 2 (of 2 available processors)

Solution count 4: 6.11631 6.12184 16.4958 34.363 

Optimal solution found (tolerance 1.00e-04)
Best objective 6.116307495203e+00, best bound 6.116307495203e+00, gap 0.0000%

Gurobi 10.0.2 (linux64) logging started Mon 21 Aug 2023 08:24:25 PM -03

Set parameter LogFile to value "/home/ciro/Documents/ftsp-optimizer/Optimization/Data/Logs/burma14_3_1001_1003_2.log"
Gurobi Optimizer version 10.0.2 build v10.0.2rc0 (linux64)

CPU model: Intel(R) Core(TM) i7-7500U CPU @ 2.70GHz, instruction set [SSE2]
Thread count: 2 physical cores, 2 logical processors, using up to 2 threads

Optimize a model with 187 rows, 224 columns and 1040 nonzeros
Model fingerprint: 0x3bf36d96
Variable types: 14 continuous, 210 integer (210 binary)
Coefficient statistics:
  Matrix range     [1e+00, 2e+01]
  Objective range  [2e-01, 1e+01]
  Bounds range     [1e+00, 1e+01]
  RHS range        [1e+00, 1e+01]
Found heuristic solution: objective 34.3630348
Presolve removed 41 rows and 57 columns
Presolve time: 0.03s
Presolved: 146 rows, 167 columns, 1641 nonzeros
Variable types: 13 continuous, 154 integer (154 binary)

Root relaxation: objective 3.837973e+00, 16 iterations, 0.00 seconds (0.00 work units)

    Nodes    |    Current Node    |     Objective Bounds      |     Work
 Expl Unexpl |  Obj  Depth IntInf | Incumbent    BestBd   Gap | It/Node Time

     0     0    3.83797    0    4   34.36303    3.83797  88.8%     -    0s
H    0     0                      16.4957963    3.83797  76.7%     -    0s
H    0     0                       6.1218430    3.83797  37.3%     -    0s
     0     0    4.21483    0    4    6.12184    4.21483  31.2%     -    0s
     0     0    4.21483    0    4    6.12184    4.21483  31.2%     -    0s
H    0     0                       6.1163075    4.21483  31.1%     -    0s
     0     0    4.99483    0    6    6.11631    4.99483  18.3%     -    0s

Cutting planes:
  Learned: 1
  Implied bound: 2
  RLT: 1

Explored 1 nodes (41 simplex iterations) in 0.09 seconds (0.01 work units)
Thread count was 2 (of 2 available processors)

Solution count 4: 6.11631 6.12184 16.4958 34.363 

Optimal solution found (tolerance 1.00e-04)
Best objective 6.116307495203e+00, best bound 6.116307495203e+00, gap 0.0000%

Gurobi 10.0.2 (linux64) logging started Tue 22 Aug 2023 09:59:49 AM -03

Set parameter LogFile to value "/home/ciro/Documents/ftsp-optimizer/Optimization/Data/Logs/burma14_3_1001_1003_2.log"
Gurobi Optimizer version 10.0.2 build v10.0.2rc0 (linux64)

CPU model: Intel(R) Core(TM) i7-7500U CPU @ 2.70GHz, instruction set [SSE2]
Thread count: 2 physical cores, 2 logical processors, using up to 2 threads

Optimize a model with 187 rows, 224 columns and 1037 nonzeros
Model fingerprint: 0x57c95174
Variable types: 14 continuous, 210 integer (210 binary)
Coefficient statistics:
  Matrix range     [1e+00, 2e+01]
  Objective range  [2e-01, 1e+01]
  Bounds range     [1e+00, 1e+01]
  RHS range        [1e+00, 1e+01]
Found heuristic solution: objective 18.2204408
Presolve removed 25 rows and 44 columns
Presolve time: 0.01s
Presolved: 162 rows, 180 columns, 1801 nonzeros
Variable types: 13 continuous, 167 integer (167 binary)

Root relaxation: objective 8.221340e+00, 19 iterations, 0.00 seconds (0.00 work units)

    Nodes    |    Current Node    |     Objective Bounds      |     Work
 Expl Unexpl |  Obj  Depth IntInf | Incumbent    BestBd   Gap | It/Node Time

     0     0    8.22134    0   10   18.22044    8.22134  54.9%     -    0s
H    0     0                      17.0063564    8.22134  51.7%     -    0s
H    0     0                      16.2595857    8.22134  49.4%     -    0s
     0     0    9.57080    0   17   16.25959    9.57080  41.1%     -    0s
     0     0   10.35539    0    6   16.25959   10.35539  36.3%     -    0s
H    0     0                      16.1951836   10.35539  36.1%     -    0s
     0     0   10.35539    0    6   16.19518   10.35539  36.1%     -    0s
     0     0   10.37553    0   16   16.19518   10.37553  35.9%     -    0s
     0     0   10.37553    0   16   16.19518   10.37553  35.9%     -    0s
H    0     0                      14.5858796   10.37553  28.9%     -    0s
     0     0   10.37553    0   16   14.58588   10.37553  28.9%     -    0s
     0     0   10.47816    0   16   14.58588   10.47816  28.2%     -    0s
     0     0   10.47816    0   10   14.58588   10.47816  28.2%     -    0s
     0     0   10.47816    0   14   14.58588   10.47816  28.2%     -    0s
     0     0   10.47816    0    6   14.58588   10.47816  28.2%     -    0s
     0     0   10.47816    0   15   14.58588   10.47816  28.2%     -    0s
     0     0   10.47816    0   13   14.58588   10.47816  28.2%     -    0s
     0     0   10.47816    0   16   14.58588   10.47816  28.2%     -    0s
     0     0   10.47816    0   16   14.58588   10.47816  28.2%     -    0s
     0     0   10.64184    0   13   14.58588   10.64184  27.0%     -    0s
     0     0   10.73420    0   10   14.58588   10.73420  26.4%     -    0s
     0     0   10.80470    0    6   14.58588   10.80470  25.9%     -    0s
     0     0   10.85434    0   19   14.58588   10.85434  25.6%     -    0s
     0     0   10.85434    0   19   14.58588   10.85434  25.6%     -    0s
     0     0   10.85434    0   19   14.58588   10.85434  25.6%     -    0s
     0     0   10.85434    0   19   14.58588   10.85434  25.6%     -    0s
     0     0   10.85434    0   19   14.58588   10.85434  25.6%     -    0s
     0     0   10.85434    0   19   14.58588   10.85434  25.6%     -    0s
H    0     0                      13.1875062   10.85434  17.7%     -    0s
     0     0   11.51332    0   10   13.18751   11.51332  12.7%     -    0s
H    0     0                      13.0435822   11.51332  11.7%     -    0s
     0     0   11.51332    0   17   13.04358   11.51332  11.7%     -    0s
     0     0   11.51332    0   10   13.04358   11.51332  11.7%     -    0s
     0     0   11.51332    0   21   13.04358   11.51332  11.7%     -    0s
     0     0   11.51332    0   19   13.04358   11.51332  11.7%     -    0s
     0     0   11.51332    0   19   13.04358   11.51332  11.7%     -    0s
     0     2   11.53390    0   19   13.04358   11.53390  11.6%     -    0s

Cutting planes:
  Gomory: 2
  Implied bound: 5
  MIR: 5
  RLT: 5

Explored 47 nodes (497 simplex iterations) in 0.15 seconds (0.07 work units)
Thread count was 2 (of 2 available processors)

Solution count 7: 13.0436 13.1875 14.5859 ... 18.2204

Optimal solution found (tolerance 1.00e-04)
Best objective 1.304358218598e+01, best bound 1.304358218598e+01, gap 0.0000%

Gurobi 10.0.2 (linux64) logging started Tue 22 Aug 2023 10:06:40 AM -03

Set parameter LogFile to value "/home/ciro/Documents/ftsp-optimizer/Optimization/Data/Logs/burma14_3_1001_1003_2.log"
Gurobi Optimizer version 10.0.2 build v10.0.2rc0 (linux64)

CPU model: Intel(R) Core(TM) i7-7500U CPU @ 2.70GHz, instruction set [SSE2]
Thread count: 2 physical cores, 2 logical processors, using up to 2 threads

Optimize a model with 187 rows, 224 columns and 1040 nonzeros
Model fingerprint: 0xe8a0d11b
Variable types: 14 continuous, 210 integer (210 binary)
Coefficient statistics:
  Matrix range     [1e+00, 2e+01]
  Objective range  [2e-01, 1e+01]
  Bounds range     [1e+00, 1e+01]
  RHS range        [1e+00, 1e+01]
Presolve removed 41 rows and 57 columns
Presolve time: 0.02s
Presolved: 146 rows, 167 columns, 1642 nonzeros
Variable types: 13 continuous, 154 integer (154 binary)
Found heuristic solution: objective 19.0548405

Root relaxation: objective 6.283152e+00, 20 iterations, 0.00 seconds (0.00 work units)

    Nodes    |    Current Node    |     Objective Bounds      |     Work
 Expl Unexpl |  Obj  Depth IntInf | Incumbent    BestBd   Gap | It/Node Time

     0     0    6.28315    0    8   19.05484    6.28315  67.0%     -    0s
H    0     0                      15.2757417    6.28315  58.9%     -    0s
H    0     0                      12.7793483    6.28315  50.8%     -    0s
     0     0    8.28760    0   16   12.77935    8.28760  35.1%     -    0s
     0     0    8.45286    0   17   12.77935    8.45286  33.9%     -    0s
     0     0    8.54886    0    6   12.77935    8.54886  33.1%     -    0s
     0     0    8.54886    0    6   12.77935    8.54886  33.1%     -    0s
     0     0    8.54886    0    6   12.77935    8.54886  33.1%     -    0s
     0     0    8.54886    0    6   12.77935    8.54886  33.1%     -    0s
     0     0    8.54886    0    6   12.77935    8.54886  33.1%     -    0s
     0     0    8.82608    0    8   12.77935    8.82608  30.9%     -    0s
     0     0    8.82608    0   11   12.77935    8.82608  30.9%     -    0s
     0     0    8.82608    0    6   12.77935    8.82608  30.9%     -    0s
     0     0    8.82608    0    6   12.77935    8.82608  30.9%     -    0s
     0     0    8.82608    0    6   12.77935    8.82608  30.9%     -    0s
     0     0    8.82608    0    6   12.77935    8.82608  30.9%     -    0s
     0     0    8.82608    0    6   12.77935    8.82608  30.9%     -    0s
     0     2    8.82608    0    6   12.77935    8.82608  30.9%     -    0s
H   27     9                      11.8860268    9.07744  23.6%   5.5    0s

Cutting planes:
  Gomory: 2
  Lift-and-project: 3
  Implied bound: 5
  MIR: 5
  RLT: 12

Explored 77 nodes (481 simplex iterations) in 0.15 seconds (0.06 work units)
Thread count was 2 (of 2 available processors)

Solution count 4: 11.886 12.7793 15.2757 19.0548 

Optimal solution found (tolerance 1.00e-04)
Best objective 1.188602683436e+01, best bound 1.188602683436e+01, gap 0.0000%

Gurobi 10.0.2 (linux64) logging started Tue 22 Aug 2023 10:06:49 AM -03

Set parameter LogFile to value "/home/ciro/Documents/ftsp-optimizer/Optimization/Data/Logs/burma14_3_1001_1003_2.log"
Gurobi Optimizer version 10.0.2 build v10.0.2rc0 (linux64)

CPU model: Intel(R) Core(TM) i7-7500U CPU @ 2.70GHz, instruction set [SSE2]
Thread count: 2 physical cores, 2 logical processors, using up to 2 threads

Optimize a model with 187 rows, 224 columns and 1040 nonzeros
Model fingerprint: 0xe8a0d11b
Variable types: 14 continuous, 210 integer (210 binary)
Coefficient statistics:
  Matrix range     [1e+00, 2e+01]
  Objective range  [2e-01, 1e+01]
  Bounds range     [1e+00, 1e+01]
  RHS range        [1e+00, 1e+01]
Presolve removed 41 rows and 57 columns
Presolve time: 0.01s
Presolved: 146 rows, 167 columns, 1642 nonzeros
Variable types: 13 continuous, 154 integer (154 binary)
Found heuristic solution: objective 19.0548405

Root relaxation: objective 6.283152e+00, 20 iterations, 0.00 seconds (0.00 work units)

    Nodes    |    Current Node    |     Objective Bounds      |     Work
 Expl Unexpl |  Obj  Depth IntInf | Incumbent    BestBd   Gap | It/Node Time

     0     0    6.28315    0    8   19.05484    6.28315  67.0%     -    0s
H    0     0                      15.2757417    6.28315  58.9%     -    0s
H    0     0                      12.7793483    6.28315  50.8%     -    0s
     0     0    8.28760    0   16   12.77935    8.28760  35.1%     -    0s
     0     0    8.45286    0   17   12.77935    8.45286  33.9%     -    0s
     0     0    8.54886    0    6   12.77935    8.54886  33.1%     -    0s
     0     0    8.54886    0    6   12.77935    8.54886  33.1%     -    0s
     0     0    8.54886    0    6   12.77935    8.54886  33.1%     -    0s
     0     0    8.54886    0    6   12.77935    8.54886  33.1%     -    0s
     0     0    8.54886    0    6   12.77935    8.54886  33.1%     -    0s
     0     0    8.82608    0    8   12.77935    8.82608  30.9%     -    0s
     0     0    8.82608    0   11   12.77935    8.82608  30.9%     -    0s
     0     0    8.82608    0    6   12.77935    8.82608  30.9%     -    0s
     0     0    8.82608    0    6   12.77935    8.82608  30.9%     -    0s
     0     0    8.82608    0    6   12.77935    8.82608  30.9%     -    0s
     0     0    8.82608    0    6   12.77935    8.82608  30.9%     -    0s
     0     0    8.82608    0    6   12.77935    8.82608  30.9%     -    0s
     0     2    8.82608    0    6   12.77935    8.82608  30.9%     -    0s
H   27     9                      11.8860268    9.07744  23.6%   5.5    0s

Cutting planes:
  Gomory: 2
  Lift-and-project: 3
  Implied bound: 5
  MIR: 5
  RLT: 12

Explored 77 nodes (481 simplex iterations) in 0.15 seconds (0.06 work units)
Thread count was 2 (of 2 available processors)

Solution count 4: 11.886 12.7793 15.2757 19.0548 

Optimal solution found (tolerance 1.00e-04)
Best objective 1.188602683436e+01, best bound 1.188602683436e+01, gap 0.0000%

Gurobi 10.0.2 (linux64) logging started Wed Aug 23 14:30:08 2023

Set parameter LogFile to value "/home/ciro/Documents/ftsp-optimizer/Optimization/Data/Logs/burma14_3_1001_1003_2.log"
Gurobi Optimizer version 10.0.2 build v10.0.2rc0 (linux64)

CPU model: Intel(R) Core(TM) i7-7500U CPU @ 2.70GHz, instruction set [SSE2]
Thread count: 2 physical cores, 2 logical processors, using up to 2 threads

Optimize a model with 188 rows, 224 columns and 1054 nonzeros
Model fingerprint: 0x7e88436c
Variable types: 14 continuous, 210 integer (210 binary)
Coefficient statistics:
  Matrix range     [1e+00, 2e+01]
  Objective range  [2e-01, 1e+01]
  Bounds range     [1e+00, 1e+01]
  RHS range        [1e+00, 1e+01]
Presolve removed 42 rows and 57 columns
Presolve time: 0.01s
Presolved: 146 rows, 167 columns, 1642 nonzeros
Variable types: 13 continuous, 154 integer (154 binary)
Found heuristic solution: objective 19.0548405

Root relaxation: objective 6.283152e+00, 20 iterations, 0.00 seconds (0.00 work units)

    Nodes    |    Current Node    |     Objective Bounds      |     Work
 Expl Unexpl |  Obj  Depth IntInf | Incumbent    BestBd   Gap | It/Node Time

     0     0    6.28315    0    8   19.05484    6.28315  67.0%     -    0s
H    0     0                      15.2757417    6.28315  58.9%     -    0s
H    0     0                      12.7793483    6.28315  50.8%     -    0s
     0     0    8.28760    0   16   12.77935    8.28760  35.1%     -    0s
     0     0    8.45286    0   17   12.77935    8.45286  33.9%     -    0s
     0     0    8.54886    0    6   12.77935    8.54886  33.1%     -    0s
     0     0    8.54886    0    6   12.77935    8.54886  33.1%     -    0s
     0     0    8.54886    0    6   12.77935    8.54886  33.1%     -    0s
     0     0    8.54886    0    6   12.77935    8.54886  33.1%     -    0s
     0     0    8.54886    0    6   12.77935    8.54886  33.1%     -    0s
     0     0    8.82608    0    8   12.77935    8.82608  30.9%     -    0s
     0     0    8.82608    0   11   12.77935    8.82608  30.9%     -    0s
     0     0    8.82608    0    6   12.77935    8.82608  30.9%     -    0s
     0     0    8.82608    0    6   12.77935    8.82608  30.9%     -    0s
     0     0    8.82608    0    6   12.77935    8.82608  30.9%     -    0s
     0     0    8.82608    0    6   12.77935    8.82608  30.9%     -    0s
     0     0    8.82608    0    6   12.77935    8.82608  30.9%     -    0s
     0     2    8.82608    0    6   12.77935    8.82608  30.9%     -    0s
H   27     9                      11.8860268    9.07744  23.6%   5.5    0s

Cutting planes:
  Gomory: 2
  Lift-and-project: 3
  Implied bound: 5
  MIR: 5
  RLT: 12

Explored 77 nodes (481 simplex iterations) in 0.18 seconds (0.06 work units)
Thread count was 2 (of 2 available processors)

Solution count 4: 11.886 12.7793 15.2757 19.0548 

Optimal solution found (tolerance 1.00e-04)
Best objective 1.188602683436e+01, best bound 1.188602683436e+01, gap 0.0000%

Gurobi 10.0.2 (linux64) logging started Wed Aug 23 14:43:01 2023

Set parameter LogFile to value "/home/ciro/Documents/ftsp-optimizer/Optimization/Data/Logs/burma14_3_1001_1003_2.log"
Gurobi Optimizer version 10.0.2 build v10.0.2rc0 (linux64)

CPU model: Intel(R) Core(TM) i7-7500U CPU @ 2.70GHz, instruction set [SSE2]
Thread count: 2 physical cores, 2 logical processors, using up to 2 threads

Optimize a model with 188 rows, 224 columns and 1054 nonzeros
Model fingerprint: 0x7e88436c
Variable types: 14 continuous, 210 integer (210 binary)
Coefficient statistics:
  Matrix range     [1e+00, 2e+01]
  Objective range  [2e-01, 1e+01]
  Bounds range     [1e+00, 1e+01]
  RHS range        [1e+00, 1e+01]
Presolve removed 42 rows and 57 columns
Presolve time: 0.02s
Presolved: 146 rows, 167 columns, 1642 nonzeros
Variable types: 13 continuous, 154 integer (154 binary)
Found heuristic solution: objective 19.0548405

Root relaxation: objective 6.283152e+00, 20 iterations, 0.00 seconds (0.00 work units)

    Nodes    |    Current Node    |     Objective Bounds      |     Work
 Expl Unexpl |  Obj  Depth IntInf | Incumbent    BestBd   Gap | It/Node Time

     0     0    6.28315    0    8   19.05484    6.28315  67.0%     -    0s
H    0     0                      15.2757417    6.28315  58.9%     -    0s
H    0     0                      12.7793483    6.28315  50.8%     -    0s
     0     0    8.28760    0   16   12.77935    8.28760  35.1%     -    0s
     0     0    8.45286    0   17   12.77935    8.45286  33.9%     -    0s
     0     0    8.54886    0    6   12.77935    8.54886  33.1%     -    0s
     0     0    8.54886    0    6   12.77935    8.54886  33.1%     -    0s
     0     0    8.54886    0    6   12.77935    8.54886  33.1%     -    0s
     0     0    8.54886    0    6   12.77935    8.54886  33.1%     -    0s
     0     0    8.54886    0    6   12.77935    8.54886  33.1%     -    0s
     0     0    8.82608    0    8   12.77935    8.82608  30.9%     -    0s
     0     0    8.82608    0   11   12.77935    8.82608  30.9%     -    0s
     0     0    8.82608    0    6   12.77935    8.82608  30.9%     -    0s
     0     0    8.82608    0    6   12.77935    8.82608  30.9%     -    0s
     0     0    8.82608    0    6   12.77935    8.82608  30.9%     -    0s
     0     0    8.82608    0    6   12.77935    8.82608  30.9%     -    0s
     0     0    8.82608    0    6   12.77935    8.82608  30.9%     -    0s
     0     2    8.82608    0    6   12.77935    8.82608  30.9%     -    0s
H   27     9                      11.8860268    9.07744  23.6%   5.5    0s

Cutting planes:
  Gomory: 2
  Lift-and-project: 3
  Implied bound: 5
  MIR: 5
  RLT: 12

Explored 77 nodes (481 simplex iterations) in 0.28 seconds (0.06 work units)
Thread count was 2 (of 2 available processors)

Solution count 4: 11.886 12.7793 15.2757 19.0548 

Optimal solution found (tolerance 1.00e-04)
Best objective 1.188602683436e+01, best bound 1.188602683436e+01, gap 0.0000%

Gurobi 10.0.2 (linux64) logging started Wed Aug 23 14:43:26 2023

Set parameter LogFile to value "/home/ciro/Documents/ftsp-optimizer/Optimization/Data/Logs/burma14_3_1001_1003_2.log"
Gurobi Optimizer version 10.0.2 build v10.0.2rc0 (linux64)

CPU model: Intel(R) Core(TM) i7-7500U CPU @ 2.70GHz, instruction set [SSE2]
Thread count: 2 physical cores, 2 logical processors, using up to 2 threads

Optimize a model with 188 rows, 224 columns and 1054 nonzeros
Model fingerprint: 0x7e88436c
Variable types: 14 continuous, 210 integer (210 binary)
Coefficient statistics:
  Matrix range     [1e+00, 2e+01]
  Objective range  [2e-01, 1e+01]
  Bounds range     [1e+00, 1e+01]
  RHS range        [1e+00, 1e+01]
Presolve removed 42 rows and 57 columns
Presolve time: 0.01s
Presolved: 146 rows, 167 columns, 1642 nonzeros
Variable types: 13 continuous, 154 integer (154 binary)
Found heuristic solution: objective 19.0548405

Root relaxation: objective 6.283152e+00, 20 iterations, 0.00 seconds (0.00 work units)

    Nodes    |    Current Node    |     Objective Bounds      |     Work
 Expl Unexpl |  Obj  Depth IntInf | Incumbent    BestBd   Gap | It/Node Time

     0     0    6.28315    0    8   19.05484    6.28315  67.0%     -    0s
H    0     0                      15.2757417    6.28315  58.9%     -    0s
H    0     0                      12.7793483    6.28315  50.8%     -    0s
     0     0    8.28760    0   16   12.77935    8.28760  35.1%     -    0s
     0     0    8.45286    0   17   12.77935    8.45286  33.9%     -    0s
     0     0    8.54886    0    6   12.77935    8.54886  33.1%     -    0s
     0     0    8.54886    0    6   12.77935    8.54886  33.1%     -    0s
     0     0    8.54886    0    6   12.77935    8.54886  33.1%     -    0s
     0     0    8.54886    0    6   12.77935    8.54886  33.1%     -    0s
     0     0    8.54886    0    6   12.77935    8.54886  33.1%     -    0s
     0     0    8.82608    0    8   12.77935    8.82608  30.9%     -    0s
     0     0    8.82608    0   11   12.77935    8.82608  30.9%     -    0s
     0     0    8.82608    0    6   12.77935    8.82608  30.9%     -    0s
     0     0    8.82608    0    6   12.77935    8.82608  30.9%     -    0s
     0     0    8.82608    0    6   12.77935    8.82608  30.9%     -    0s
     0     0    8.82608    0    6   12.77935    8.82608  30.9%     -    0s
     0     0    8.82608    0    6   12.77935    8.82608  30.9%     -    0s
     0     2    8.82608    0    6   12.77935    8.82608  30.9%     -    0s
H   27     9                      11.8860268    9.07744  23.6%   5.5    0s

Cutting planes:
  Gomory: 2
  Lift-and-project: 3
  Implied bound: 5
  MIR: 5
  RLT: 12

Explored 77 nodes (481 simplex iterations) in 0.25 seconds (0.06 work units)
Thread count was 2 (of 2 available processors)

Solution count 4: 11.886 12.7793 15.2757 19.0548 

Optimal solution found (tolerance 1.00e-04)
Best objective 1.188602683436e+01, best bound 1.188602683436e+01, gap 0.0000%

Gurobi 10.0.2 (linux64) logging started Wed Aug 23 14:43:43 2023

Set parameter LogFile to value "/home/ciro/Documents/ftsp-optimizer/Optimization/Data/Logs/burma14_3_1001_1003_2.log"
Gurobi Optimizer version 10.0.2 build v10.0.2rc0 (linux64)

CPU model: Intel(R) Core(TM) i7-7500U CPU @ 2.70GHz, instruction set [SSE2]
Thread count: 2 physical cores, 2 logical processors, using up to 2 threads

Optimize a model with 188 rows, 224 columns and 1054 nonzeros
Model fingerprint: 0x7e88436c
Variable types: 14 continuous, 210 integer (210 binary)
Coefficient statistics:
  Matrix range     [1e+00, 2e+01]
  Objective range  [2e-01, 1e+01]
  Bounds range     [1e+00, 1e+01]
  RHS range        [1e+00, 1e+01]
Presolve removed 42 rows and 57 columns
Presolve time: 0.02s
Presolved: 146 rows, 167 columns, 1642 nonzeros
Variable types: 13 continuous, 154 integer (154 binary)
Found heuristic solution: objective 19.0548405

Root relaxation: objective 6.283152e+00, 20 iterations, 0.00 seconds (0.00 work units)

    Nodes    |    Current Node    |     Objective Bounds      |     Work
 Expl Unexpl |  Obj  Depth IntInf | Incumbent    BestBd   Gap | It/Node Time

     0     0    6.28315    0    8   19.05484    6.28315  67.0%     -    0s
H    0     0                      15.2757417    6.28315  58.9%     -    0s
H    0     0                      12.7793483    6.28315  50.8%     -    0s
     0     0    8.28760    0   16   12.77935    8.28760  35.1%     -    0s
     0     0    8.45286    0   17   12.77935    8.45286  33.9%     -    0s
     0     0    8.54886    0    6   12.77935    8.54886  33.1%     -    0s
     0     0    8.54886    0    6   12.77935    8.54886  33.1%     -    0s
     0     0    8.54886    0    6   12.77935    8.54886  33.1%     -    0s
     0     0    8.54886    0    6   12.77935    8.54886  33.1%     -    0s
     0     0    8.54886    0    6   12.77935    8.54886  33.1%     -    0s
     0     0    8.82608    0    8   12.77935    8.82608  30.9%     -    0s
     0     0    8.82608    0   11   12.77935    8.82608  30.9%     -    0s
     0     0    8.82608    0    6   12.77935    8.82608  30.9%     -    0s
     0     0    8.82608    0    6   12.77935    8.82608  30.9%     -    0s
     0     0    8.82608    0    6   12.77935    8.82608  30.9%     -    0s
     0     0    8.82608    0    6   12.77935    8.82608  30.9%     -    0s
     0     0    8.82608    0    6   12.77935    8.82608  30.9%     -    0s
     0     2    8.82608    0    6   12.77935    8.82608  30.9%     -    0s
H   27     9                      11.8860268    9.07744  23.6%   5.5    0s

Cutting planes:
  Gomory: 2
  Lift-and-project: 3
  Implied bound: 5
  MIR: 5
  RLT: 12

Explored 77 nodes (481 simplex iterations) in 0.24 seconds (0.06 work units)
Thread count was 2 (of 2 available processors)

Solution count 4: 11.886 12.7793 15.2757 19.0548 

Optimal solution found (tolerance 1.00e-04)
Best objective 1.188602683436e+01, best bound 1.188602683436e+01, gap 0.0000%

Gurobi 10.0.2 (linux64) logging started Wed Aug 23 14:43:54 2023

Set parameter LogFile to value "/home/ciro/Documents/ftsp-optimizer/Optimization/Data/Logs/burma14_3_1001_1003_2.log"
Gurobi Optimizer version 10.0.2 build v10.0.2rc0 (linux64)

CPU model: Intel(R) Core(TM) i7-7500U CPU @ 2.70GHz, instruction set [SSE2]
Thread count: 2 physical cores, 2 logical processors, using up to 2 threads

Optimize a model with 188 rows, 224 columns and 1054 nonzeros
Model fingerprint: 0x7e88436c
Variable types: 14 continuous, 210 integer (210 binary)
Coefficient statistics:
  Matrix range     [1e+00, 2e+01]
  Objective range  [2e-01, 1e+01]
  Bounds range     [1e+00, 1e+01]
  RHS range        [1e+00, 1e+01]
Presolve removed 42 rows and 57 columns
Presolve time: 0.01s
Presolved: 146 rows, 167 columns, 1642 nonzeros
Variable types: 13 continuous, 154 integer (154 binary)
Found heuristic solution: objective 19.0548405

Root relaxation: objective 6.283152e+00, 20 iterations, 0.00 seconds (0.00 work units)

    Nodes    |    Current Node    |     Objective Bounds      |     Work
 Expl Unexpl |  Obj  Depth IntInf | Incumbent    BestBd   Gap | It/Node Time

     0     0    6.28315    0    8   19.05484    6.28315  67.0%     -    0s
H    0     0                      15.2757417    6.28315  58.9%     -    0s
H    0     0                      12.7793483    6.28315  50.8%     -    0s
     0     0    8.28760    0   16   12.77935    8.28760  35.1%     -    0s
     0     0    8.45286    0   17   12.77935    8.45286  33.9%     -    0s
     0     0    8.54886    0    6   12.77935    8.54886  33.1%     -    0s
     0     0    8.54886    0    6   12.77935    8.54886  33.1%     -    0s
     0     0    8.54886    0    6   12.77935    8.54886  33.1%     -    0s
     0     0    8.54886    0    6   12.77935    8.54886  33.1%     -    0s
     0     0    8.54886    0    6   12.77935    8.54886  33.1%     -    0s
     0     0    8.82608    0    8   12.77935    8.82608  30.9%     -    0s
     0     0    8.82608    0   11   12.77935    8.82608  30.9%     -    0s
     0     0    8.82608    0    6   12.77935    8.82608  30.9%     -    0s
     0     0    8.82608    0    6   12.77935    8.82608  30.9%     -    0s
     0     0    8.82608    0    6   12.77935    8.82608  30.9%     -    0s
     0     0    8.82608    0    6   12.77935    8.82608  30.9%     -    0s
     0     0    8.82608    0    6   12.77935    8.82608  30.9%     -    0s
     0     2    8.82608    0    6   12.77935    8.82608  30.9%     -    0s
H   27     9                      11.8860268    9.07744  23.6%   5.5    0s

Cutting planes:
  Gomory: 2
  Lift-and-project: 3
  Implied bound: 5
  MIR: 5
  RLT: 12

Explored 77 nodes (481 simplex iterations) in 0.22 seconds (0.06 work units)
Thread count was 2 (of 2 available processors)

Solution count 4: 11.886 12.7793 15.2757 19.0548 

Optimal solution found (tolerance 1.00e-04)
Best objective 1.188602683436e+01, best bound 1.188602683436e+01, gap 0.0000%
